NAME: Golden_18
TYPE: CVRP
COMMENT: 997.52
DIMENSION: 301
CAPACITY: 200
VEHICLES: 28
EDGE_WEIGHT_TYPE: FUNCTION
EDGE_WEIGHT_FORMAT: EUC_2D
NODE_COORD_TYPE: TWOD_COORDS
NODE_COORD_SECTION
1 5.77350 0.00000
2 2.88670 5.00000
3 -2.88680 5.00000
4 -5.77350 0.00000
5 -2.88670 -5.00000
6 2.88680 -5.00000
7 8.66030 5.00000
8 0.00000 10.00000
9 -8.66030 5.00000
10 -8.66030 -5.00000
11 0.00000 -10.00000
12 8.66030 -5.00000
13 5.34050 0.75000
14 3.31980 4.25000
15 6.49520 -1.25000
16 7.21690 -2.50000
17 7.93860 -3.75000
18 6.49520 1.25000
19 7.21690 2.50000
20 7.93860 3.75000
21 2.02070 5.00000
22 -2.02070 5.00000
23 4.33010 5.00000
24 5.77350 5.00000
25 7.21690 5.00000
26 2.16510 6.25000
27 1.44340 7.50000
28 0.72170 8.75000
29 -3.31980 4.25000
30 -5.34050 0.75000
31 -2.16510 6.25000
32 -1.44340 7.50000
33 -0.72170 8.75000
34 -4.33010 5.00000
35 -5.77350 5.00000
36 -7.21690 5.00000
37 -5.34050 -0.75000
38 -3.31980 -4.25000
39 -6.49520 1.25000
40 -7.21690 2.50000
41 -7.93860 3.75000
42 -6.49520 -1.25000
43 -7.21690 -2.50000
44 -7.93860 -3.75000
45 -2.02070 -5.00000
46 2.02070 -5.00000
47 -4.33010 -5.00000
48 -5.77350 -5.00000
49 -7.21690 -5.00000
50 -2.16510 -6.25000
51 -1.44340 -7.50000
52 -0.72170 -8.75000
53 3.31980 -4.25000
54 5.34050 -0.75000
55 2.16510 -6.25000
56 1.44340 -7.50000
57 0.72170 -8.75000
58 4.33010 -5.00000
59 5.77350 -5.00000
60 7.21690 -5.00000
61 7.21690 0.00000
62 3.60840 6.25000
63 -3.60840 6.25000
64 -7.21690 0.00000
65 -3.60840 -6.25000
66 3.60840 -6.25000
67 10.82530 6.25000
68 0.00000 12.50000
69 -10.82530 6.25000
70 -10.82530 -6.25000
71 0.00000 -12.50000
72 10.82530 -6.25000
73 6.67560 0.93750
74 4.14970 5.31250
75 8.11900 -1.56250
76 9.02110 -3.12500
77 9.92320 -4.68750
78 8.11900 1.56250
79 9.02110 3.12500
80 9.92320 4.68750
81 2.52590 6.25000
82 -2.52590 6.25000
83 5.41270 6.25000
84 7.21690 6.25000
85 9.02110 6.25000
86 2.70630 7.81250
87 1.80420 9.37500
88 0.90210 10.93750
89 -4.14970 5.31250
90 -6.67560 0.93750
91 -2.70630 7.81250
92 -1.80420 9.37500
93 -0.90210 10.93750
94 -5.41270 6.25000
95 -7.21690 6.25000
96 -9.02110 6.25000
97 -6.67560 -0.93750
98 -4.14970 -5.31250
99 -8.11900 1.56250
100 -9.02110 3.12500
101 -9.92320 4.68750
102 -8.11900 -1.56250
103 -9.02110 -3.12500
104 -9.92320 -4.68750
105 -2.52590 -6.25000
106 2.52590 -6.25000
107 -5.41270 -6.25000
108 -7.21690 -6.25000
109 -9.02110 -6.25000
110 -2.70630 -7.81250
111 -1.80420 -9.37500
112 -0.90210 -10.93750
113 4.14970 -5.31250
114 6.67560 -0.93750
115 2.70630 -7.81250
116 1.80420 -9.37500
117 0.90210 -10.93750
118 5.41270 -6.25000
119 7.21690 -6.25000
120 9.02110 -6.25000
121 9.02110 0.00000
122 4.51050 7.81250
123 -4.51050 7.81250
124 -9.02110 0.00000
125 -4.51050 -7.81250
126 4.51060 -7.81250
127 13.53160 7.81250
128 0.00000 15.62500
129 -13.53160 7.81250
130 -13.53160 -7.81250
131 0.00000 -15.62500
132 13.53160 -7.81250
133 8.34450 1.17190
134 5.18710 6.64060
135 10.14870 -1.95310
136 11.27640 -3.90620
137 12.40400 -5.85940
138 10.14870 1.95310
139 11.27640 3.90620
140 12.40400 5.85940
141 3.15740 7.81250
142 -3.15740 7.81250
143 6.76580 7.81250
144 9.02110 7.81250
145 11.27640 7.81250
146 3.38290 9.76560
147 2.25530 11.71870
148 1.12760 13.67190
149 -5.18710 6.64060
150 -8.34450 1.17190
151 -3.38290 9.76560
152 -2.25530 11.71870
153 -1.12760 13.67190
154 -6.76580 7.81250
155 -9.02110 7.81250
156 -11.27640 7.81250
157 -8.34450 -1.17190
158 -5.18710 -6.64060
159 -10.14870 1.95310
160 -11.27640 3.90620
161 -12.40400 5.85940
162 -10.14870 -1.95310
163 -11.27640 -3.90630
164 -12.40400 -5.85940
165 -3.15740 -7.81250
166 3.15740 -7.81250
167 -6.76580 -7.81250
168 -9.02110 -7.81250
169 -11.27640 -7.81250
170 -3.38290 -9.76560
171 -2.25530 -11.71870
172 -1.12760 -13.67190
173 5.18710 -6.64060
174 8.34450 -1.17190
175 3.38290 -9.76560
176 2.25530 -11.71870
177 1.12760 -13.67190
178 6.76580 -7.81250
179 9.02110 -7.81250
180 11.27640 -7.81250
181 11.27640 0.00000
182 5.63820 9.76560
183 -5.63820 9.76560
184 -11.27640 0.00000
185 -5.63820 -9.76560
186 5.63820 -9.76560
187 16.91460 9.76560
188 0.00000 19.53120
189 -16.91460 9.76560
190 -16.91460 -9.76560
191 0.00000 -19.53120
192 16.91460 -9.76560
193 10.43060 1.46480
194 6.48390 8.30080
195 12.68590 -2.44140
196 14.09550 -4.88280
197 15.50500 -7.32420
198 12.68590 2.44140
199 14.09550 4.88280
200 15.50500 7.32420
201 3.94670 9.76560
202 -3.94670 9.76560
203 8.45730 9.76560
204 11.27640 9.76560
205 14.09550 9.76560
206 4.22860 12.20700
207 2.81910 14.64840
208 1.40950 17.08980
209 -6.48390 8.30080
210 -10.43060 1.46480
211 -4.22860 12.20700
212 -2.81910 14.64840
213 -1.40950 17.08980
214 -8.45730 9.76560
215 -11.27640 9.76560
216 -14.09550 9.76560
217 -10.43060 -1.46480
218 -6.48390 -8.30080
219 -12.68590 2.44140
220 -14.09550 4.88280
221 -15.50500 7.32420
222 -12.68590 -2.44140
223 -14.09550 -4.88280
224 -15.50500 -7.32420
225 -3.94670 -9.76560
226 3.94670 -9.76560
227 -8.45730 -9.76560
228 -11.27640 -9.76560
229 -14.09550 -9.76560
230 -4.22860 -12.20700
231 -2.81910 -14.64840
232 -1.40950 -17.08980
233 6.48390 -8.30080
234 10.43060 -1.46480
235 4.22860 -12.20700
236 2.81910 -14.64840
237 1.40950 -17.08980
238 8.45730 -9.76560
239 11.27640 -9.76560
240 14.09550 -9.76560
241 14.09550 0.00000
242 7.04770 12.20700
243 -7.04770 12.20700
244 -14.09550 0.00000
245 -7.04770 -12.20700
246 7.04770 -12.20700
247 21.14320 12.20700
248 0.00000 24.41410
249 -21.14320 12.20700
250 -21.14320 -12.20700
251 0.00000 -24.41410
252 21.14320 -12.20700
253 13.03830 1.83110
254 8.10490 10.37600
255 15.85740 -3.05180
256 17.61930 -6.10350
257 19.38130 -9.15530
258 15.85740 3.05180
259 17.61930 6.10350
260 19.38130 9.15530
261 4.93340 12.20700
262 -4.93340 12.20700
263 10.57160 12.20700
264 14.09550 12.20700
265 17.61930 12.20700
266 5.28580 15.25880
267 3.52390 18.31050
268 1.76190 21.36230
269 -8.10490 10.37600
270 -13.03830 1.83110
271 -5.28580 15.25880
272 -3.52390 18.31050
273 -1.76190 21.36230
274 -10.57160 12.20700
275 -14.09550 12.20700
276 -17.61930 12.20700
277 -13.03830 -1.83110
278 -8.10490 -10.37600
279 -15.85740 3.05180
280 -17.61930 6.10350
281 -19.38130 9.15530
282 -15.85740 -3.05180
283 -17.61930 -6.10350
284 -19.38130 -9.15530
285 -4.93340 -12.20700
286 4.93340 -12.20700
287 -10.57160 -12.20700
288 -14.09550 -12.20700
289 -17.61930 -12.20700
290 -5.28580 -15.25880
291 -3.52390 -18.31050
292 -1.76190 -21.36230
293 8.10490 -10.37600
294 13.03830 -1.83110
295 5.28580 -15.25880
296 3.52390 -18.31050
297 1.76190 -21.36230
298 10.57160 -12.20700
299 14.09550 -12.20700
300 17.61930 -12.20700
DEMAND_SECTION
1 40
2 40
3 40
4 40
5 40
6 40
7 40
8 40
9 40
10 40
11 40
12 40
13 10
14 10
15 10
16 20
17 10
18 10
19 20
20 10
21 10
22 10
23 10
24 20
25 10
26 10
27 20
28 10
29 10
30 10
31 10
32 20
33 10
34 10
35 20
36 10
37 10
38 10
39 10
40 20
41 10
42 10
43 20
44 10
45 10
46 10
47 10
48 20
49 10
50 10
51 20
52 10
53 10
54 10
55 10
56 20
57 10
58 10
59 20
60 10
61 40
62 40
63 40
64 40
65 40
66 40
67 40
68 40
69 40
70 40
71 40
72 40
73 10
74 10
75 10
76 20
77 10
78 10
79 20
80 10
81 10
82 10
83 10
84 20
85 10
86 10
87 20
88 10
89 10
90 10
91 10
92 20
93 10
94 10
95 20
96 10
97 10
98 10
99 10
100 20
101 10
102 10
103 20
104 10
105 10
106 10
107 10
108 20
109 10
110 10
111 20
112 10
113 10
114 10
115 10
116 20
117 10
118 10
119 20
120 10
121 40
122 40
123 40
124 40
125 40
126 40
127 40
128 40
129 40
130 40
131 40
132 40
133 10
134 10
135 10
136 20
137 10
138 10
139 20
140 10
141 10
142 10
143 10
144 20
145 10
146 10
147 20
148 10
149 10
150 10
151 10
152 20
153 10
154 10
155 20
156 10
157 10
158 10
159 10
160 20
161 10
162 10
163 20
164 10
165 10
166 10
167 10
168 20
169 10
170 10
171 20
172 10
173 10
174 10
175 10
176 20
177 10
178 10
179 20
180 10
181 40
182 40
183 40
184 40
185 40
186 40
187 40
188 40
189 40
190 40
191 40
192 40
193 10
194 10
195 10
196 20
197 10
198 10
199 20
200 10
201 10
202 10
203 10
204 20
205 10
206 10
207 20
208 10
209 10
210 10
211 10
212 20
213 10
214 10
215 20
216 10
217 10
218 10
219 10
220 20
221 10
222 10
223 20
224 10
225 10
226 10
227 10
228 20
229 10
230 10
231 20
232 10
233 10
234 10
235 10
236 20
237 10
238 10
239 20
240 10
241 40
242 40
243 40
244 40
245 40
246 40
247 40
248 40
249 40
250 40
251 40
252 40
253 10
254 10
255 10
256 20
257 10
258 10
259 20
260 10
261 10
262 10
263 10
264 20
265 10
266 10
267 20
268 10
269 10
270 10
271 10
272 20
273 10
274 10
275 20
276 10
277 10
278 10
279 10
280 20
281 10
282 10
283 20
284 10
285 10
286 10
287 10
288 20
289 10
290 10
291 20
292 10
293 10
294 10
295 10
296 20
297 10
298 10
299 20
300 10
DEPOT_SECTION
0.00000 0.00000
-1
EOF
